c description: Random 3-CNF over 15 variables and 75 clauses
p cnf 15 75
1 -9 14 0
1 -7 10 0
1 -4 6 0
3 9 -15 0
5 10 13 0
3 -4 5 0
2 6 8 0
-6 -10 15 0
3 8 11 0
3 7 13 0
-2 -4 -7 0
4 -9 11 0
-3 5 -12 0
3 7 -11 0
-3 7 -14 0
7 -12 -14 0
2 -8 -9 0
3 6 -8 0
3 -9 -11 0
2 -10 -11 0
-5 8 10 0
3 6 15 0
-1 3 -5 0
-6 11 14 0
-7 -9 15 0
1 -9 -14 0
1 -3 -9 0
-1 -3 14 0
9 -11 -14 0
4 -11 -13 0
-2 11 15 0
-9 11 15 0
8 -10 -13 0
-2 -5 13 0
-4 -9 -11 0
1 5 14 0
-9 -11 14 0
-5 13 14 0
-5 -7 -8 0
-6 -8 13 0
2 6 14 0
5 11 -13 0
-8 9 14 0
8 9 -11 0
-8 12 15 0
3 6 -9 0
-4 -8 -13 0
1 -5 6 0
-4 -5 8 0
1 -7 -8 0
2 6 -12 0
-2 4 -14 0
-2 -13 -14 0
-3 5 14 0
-4 -6 -10 0
5 7 -13 0
2 7 -10 0
-4 -8 -14 0
-2 -9 15 0
-4 9 13 0
-4 -5 7 0
-5 12 -13 0
-1 8 -10 0
-2 5 -7 0
1 -2 5 0
2 7 -13 0
-5 -8 -9 0
-3 10 14 0
-6 9 -10 0
8 -13 -14 0
7 -8 10 0
-6 -11 12 0
-1 -10 14 0
-3 -4 14 0
-1 7 13 0